experiment/data/lkh-res/Vrp-Set-X-n331/Vrp-Set-X-n331-lkh/0.lkh1.vrp
NAME : 0
COMMENT : CVRP Instance
TYPE : CVRP
DIMENSION : 331
EDGE_WEIGHT_TYPE : EUC_2D
CAPACITY : 23
NODE_COORD_SECTION
1	0	0
2	200	85700
3	40700	10200
4	91500	96500
5	79700	4500
6	99700	24100
7	65000	68300
8	74800	24800
9	9900	17400
10	200	54500
11	27700	68900
12	56800	77100
13	7600	10500
14	11700	97300
15	17100	97100
16	32700	18300
17	27700	69700
18	26900	24600
19	67000	1800
20	5100	90100
21	95100	69600
22	71000	10200
23	6100	46500
24	34800	60600
25	55100	24300
26	52400	79300
27	8900	58200
28	90000	74800
29	23500	36800
30	12200	58700
31	44900	78100
32	97000	3800
33	36200	49000
34	74200	26700
35	28900	11500
36	89800	95700
37	99600	92200
38	95100	63300
39	71300	77900
40	60300	24700
41	40200	36300
42	14300	0
43	27400	60800
44	8100	42200
45	55000	40800
46	4300	69900
47	48200	57500
48	90900	25400
49	61300	3700
50	20200	57500
51	29700	29700
52	73600	28800
53	46400	12700
54	49900	49100
55	63500	53100
56	79600	32800
57	18400	94100
58	64100	82400
59	86300	67300
60	39600	95000
61	55500	63100
62	66400	96600
63	30100	26000
64	42500	99000
65	55900	74600
66	43100	82700
67	72400	47200
68	84700	5100
69	88800	72100
70	13600	33100
71	85900	62700
72	20600	500
73	42900	38100
74	79800	91800
75	88600	68400
76	12300	48800
77	77900	44500
78	76400	4300
79	93800	74300
80	80000	39800
81	73400	2000
82	21100	67800
83	60100	54500
84	51200	40300
85	79600	10600
86	64400	81000
87	41600	97300
88	11500	43500
89	66700	9100
90	39500	94100
91	37400	54600
92	54600	19100
93	75400	25500
94	12400	58800
95	42300	92900
96	31400	63700
97	66800	26800
98	32100	78600
99	96000	42300
100	1100	49900
101	72100	69200
102	80300	58400
103	33700	47500
104	80600	77300
105	42900	47800
106	21400	54700
107	36100	16600
108	94400	21800
109	1200	46800
110	52700	25500
111	78900	72400
112	25000	86200
113	89200	89600
114	54500	80600
115	83200	1200
116	62800	49500
117	19400	88400
118	39500	30900
119	65500	3900
120	55800	17500
121	24700	94700
122	3600	39400
123	87700	45100
124	59900	72400
125	8300	48900
126	75400	70300
127	6500	3500
128	88900	23000
129	93800	30700
130	66200	39400
131	24800	22000
132	64200	54900
133	74700	8600
134	20100	64300
135	40000	57400
136	65300	79800
137	65300	90400
138	64300	13800
139	95100	30700
140	79300	86500
141	50000	72600
142	58500	58600
143	28500	76900
144	51100	89800
145	33600	91200
146	45400	20700
147	23900	95100
148	33500	81500
149	91100	70800
150	200	23900
151	60200	98400
152	37200	79900
153	17700	75600
154	81600	43500
155	61700	63900
156	80600	79600
157	79300	58400
158	80300	56100
159	47900	83100
160	39700	2000
161	61800	11300
162	70200	90200
163	83800	11100
164	98900	45100
165	21500	15400
166	58100	75700
167	29400	17400
168	99700	33200
169	35000	90900
170	33500	94100
171	90600	35400
172	92000	67500
173	49300	46900
174	18700	28400
175	67800	12700
176	83100	75500
177	31600	31900
178	18800	13400
179	7300	60800
180	88400	61300
181	19300	83100
182	71700	85100
183	50800	5200
184	80900	55600
185	70500	76900
186	98300	31200
187	84700	35900
188	41500	65800
189	13200	78900
190	52000	41300
191	91300	56400
192	9000	25600
193	96000	93600
194	69300	55900
195	98000	34700
196	30000	45600
197	37600	14400
198	19200	17700
199	27200	52500
200	8800	62600
201	77200	74300
202	54000	20600
203	47400	55900
204	57500	90100
205	24100	94900
206	58300	60200
207	21500	4800
208	46000	68300
209	8100	36800
210	99800	83500
211	58500	23400
212	52200	13700
213	29400	50100
214	78800	39200
215	62100	49800
216	11600	69800
217	8100	23600
218	78800	27700
219	81700	86100
220	67800	56000
221	35100	35400
222	15600	50700
223	61700	48600
224	21800	18900
225	21300	2300
226	88400	61600
227	92300	17700
228	82900	81400
229	47900	30700
230	28500	15300
231	58400	87800
232	17600	92800
233	16600	65600
234	50700	18300
235	90700	17100
236	700	79200
237	99500	41200
238	2200	78700
239	14900	78400
240	64900	93300
241	88500	30900
242	13100	56000
243	2200	8100
244	50200	64000
245	46200	97000
246	46500	11400
247	19200	56900
248	54700	47300
249	55700	40800
250	48000	57900
251	77500	39500
252	84500	75300
253	70100	52900
254	96200	9500
255	84200	84700
256	3100	6800
257	62700	62900
258	52400	32200
259	91800	85300
260	82300	77400
261	77500	89400
262	10900	93500
263	47800	48000
264	51100	48800
265	78500	89900
266	48700	12100
267	45300	44000
268	47000	59800
269	100	11100
270	75600	8900
271	72800	58300
272	64700	75300
273	97300	39100
274	84200	55900
275	63700	39700
276	7200	37000
277	94800	48500
278	99900	26800
279	47100	51700
280	35000	13100
281	38100	53400
282	31000	46700
283	97300	21200
284	16400	48500
285	42900	56500
286	18600	42600
287	83800	89700
288	77900	14300
289	45200	100
290	86600	92800
291	21400	62300
292	53200	58600
293	51300	15200
294	91500	77200
295	20400	58500
296	34300	55800
297	87700	72000
298	73000	27200
299	36400	61700
300	21000	56900
301	51400	29600
302	3300	76100
303	20200	69500
304	70600	39500
305	59700	86600
306	37600	8300
307	67900	43400
308	48300	57800
309	0	29900
310	63900	10100
311	70900	59000
312	77400	92500
313	80400	86400
314	52800	19200
315	66000	56100
316	88800	700
317	78800	71200
318	7900	75000
319	85400	88400
320	71000	66500
321	93900	39000
322	15600	68300
323	6200	73700
324	20700	50100
325	94400	33400
326	95200	91500
327	1400	44000
328	92300	38600
329	69300	37000
330	48500	88500
331	89000	95100
DEMAND_SECTION
1	0
2	1
3	1
4	1
5	1
6	1
7	1
8	1
9	1
10	1
11	1
12	1
13	1
14	1
15	1
16	1
17	1
18	1
19	1
20	1
21	1
22	1
23	1
24	1
25	1
26	1
27	1
28	1
29	1
30	1
31	1
32	1
33	1
34	1
35	1
36	1
37	1
38	1
39	1
40	1
41	1
42	1
43	1
44	1
45	1
46	1
47	1
48	1
49	1
50	1
51	1
52	1
53	1
54	1
55	1
56	1
57	1
58	1
59	1
60	1
61	1
62	1
63	1
64	1
65	1
66	1
67	1
68	1
69	1
70	1
71	1
72	1
73	1
74	1
75	1
76	1
77	1
78	1
79	1
80	1
81	1
82	1
83	1
84	1
85	1
86	1
87	1
88	1
89	1
90	1
91	1
92	1
93	1
94	1
95	1
96	1
97	1
98	1
99	1
100	1
101	1
102	1
103	1
104	1
105	1
106	1
107	1
108	1
109	1
110	1
111	1
112	1
113	1
114	1
115	1
116	1
117	1
118	1
119	1
120	1
121	1
122	1
123	1
124	1
125	1
126	1
127	1
128	1
129	1
130	1
131	1
132	1
133	1
134	1
135	1
136	1
137	1
138	1
139	1
140	1
141	1
142	1
143	1
144	1
145	1
146	1
147	1
148	1
149	1
150	1
151	1
152	1
153	1
154	1
155	1
156	1
157	1
158	1
159	1
160	1
161	1
162	1
163	1
164	1
165	1
166	1
167	1
168	1
169	1
170	1
171	1
172	1
173	1
174	1
175	1
176	1
177	1
178	1
179	1
180	1
181	1
182	1
183	1
184	1
185	1
186	1
187	1
188	1
189	1
190	1
191	1
192	1
193	1
194	1
195	1
196	1
197	1
198	1
199	1
200	1
201	1
202	1
203	1
204	1
205	1
206	1
207	1
208	1
209	1
210	1
211	1
212	1
213	1
214	1
215	1
216	1
217	1
218	1
219	1
220	1
221	1
222	1
223	1
224	1
225	1
226	1
227	1
228	1
229	1
230	1
231	1
232	1
233	1
234	1
235	1
236	1
237	1
238	1
239	1
240	1
241	1
242	1
243	1
244	1
245	1
246	1
247	1
248	1
249	1
250	1
251	1
252	1
253	1
254	1
255	1
256	1
257	1
258	1
259	1
260	1
261	1
262	1
263	1
264	1
265	1
266	1
267	1
268	1
269	1
270	1
271	1
272	1
273	1
274	1
275	1
276	1
277	1
278	1
279	1
280	1
281	1
282	1
283	1
284	1
285	1
286	1
287	1
288	1
289	1
290	1
291	1
292	1
293	1
294	1
295	1
296	1
297	1
298	1
299	1
300	1
301	1
302	1
303	1
304	1
305	1
306	1
307	1
308	1
309	1
310	1
311	1
312	1
313	1
314	1
315	1
316	1
317	1
318	1
319	1
320	1
321	1
322	1
323	1
324	1
325	1
326	1
327	1
328	1
329	1
330	1
331	1
DEPOT_SECTION
1
-1
EOF
