experiment/data/lkh-res/Vrp-Set-X-n331/Vrp-Set-X-n331-lkh/0.lkh1.tour
NAME : 0.3155839.tour
COMMENT : Length = 3155839
COMMENT : Found by LKH-3 [Keld Helsgaun] Tue Apr  9 06:46:21 2024
TYPE : TOUR
DIMENSION : 345
TOUR_SECTION
1
23
200
46
323
318
302
238
236
2
20
262
14
15
57
232
117
181
239
189
216
322
233
125
345
127
42
72
225
207
178
13
256
332
243
217
192
209
276
44
88
76
284
222
242
94
30
27
179
10
100
109
327
122
309
150
269
333
49
119
19
81
78
5
68
115
316
32
254
235
227
108
283
6
278
48
128
93
8
3
306
334
329
304
251
214
80
77
154
123
277
191
38
21
172
226
180
274
184
158
67
307
130
275
229
342
70
286
324
106
300
247
50
295
291
134
82
303
17
11
96
43
199
213
282
196
29
174
9
336
103
33
281
91
135
285
268
250
308
47
203
279
54
264
173
263
267
73
41
221
177
51
165
344
244
65
12
166
136
86
58
162
137
240
62
151
204
231
305
114
26
141
208
188
299
24
296
339
211
40
97
52
56
187
171
328
321
99
164
237
273
195
168
186
139
129
325
241
218
34
298
337
35
280
197
53
246
266
212
293
120
138
175
288
163
85
270
133
22
89
310
161
183
289
160
338
124
182
261
265
312
74
287
290
331
36
4
193
326
37
210
259
113
319
255
219
313
140
61
335
83
126
317
111
201
104
156
228
260
176
252
297
69
28
294
79
149
75
59
71
102
157
253
340
230
167
16
107
146
234
314
92
202
25
110
301
258
249
45
190
84
118
63
18
131
224
198
343
248
223
215
116
55
132
315
220
194
271
311
320
101
39
185
272
7
155
257
206
142
292
105
341
143
98
148
152
66
31
159
330
144
245
64
87
95
60
90
169
145
170
121
205
147
112
153
-1
EOF
